========================================================== 
File name: C:\DEGR\assets\definitions\MSRCPSP_Gen\100_40_512_5_B.def
Creation date: Wed May 03 10:44:00 CEST 2023
Website: http://imopse.ii.pwr.edu.pl/ 
Reference: 
Myszkowski P. B., Skowronski M. E., Olech L., Oslizlo K., 
Hybrid Ant Colony Optimization in solving Multi-Skill Resource-Constrained Project Scheduling Problem, 
Soft Computing, DOI: DOI 10.1007/s00500-014-1455-x 
========================================================== 
General characteristics: 
Tasks: 100
Resources: 40
Precedence relations: 478
Number of skill types: 5
========================================================== 
ResourceID 	 Salary 	 Skills 
1	 	 	61.8	 	 Q1: 0 	 
2	 	 	87.6	 	 Q1: 0 	  Q3: 0 	 
3	 	 	42.9	 	 Q1: 2 	 
4	 	 	75.3	 	 Q2: 1 	  Q1: 1 	  Q4: 0 	  Q0: 3 	 
5	 	 	54.9	 	 Q2: 1 	  Q3: 0 	 
6	 	 	88.2	 	 Q0: 0 	  Q4: 2 	  Q3: 3 	 
7	 	 	28.4	 	 Q3: 1 	  Q4: 0 	 
8	 	 	84.8	 	 Q1: 0 	  Q0: 1 	 
9	 	 	34.4	 	 Q4: 0 	 
10	 	 	86.2	 	 Q0: 0 	 
11	 	 	73.7	 	 Q4: 0 	 
12	 	 	84.6	 	 Q0: 1 	  Q4: 0 	  Q1: 1 	  Q3: 0 	 
13	 	 	63.3	 	 Q2: 1 	  Q0: 1 	 
14	 	 	88.6	 	 Q4: 3 	  Q3: 1 	 
15	 	 	16.4	 	 Q2: 2 	  Q1: 1 	 
16	 	 	67.1	 	 Q3: 0 	  Q0: 2 	  Q2: 2 	  Q4: 1 	 
17	 	 	35.6	 	 Q3: 1 	  Q4: 1 	  Q1: 2 	  Q0: 2 	 
18	 	 	55.4	 	 Q0: 0 	  Q4: 2 	 
19	 	 	43.1	 	 Q4: 1 	  Q3: 3 	  Q2: 2 	 
20	 	 	63.3	 	 Q3: 0 	  Q0: 2 	  Q4: 3 	 
21	 	 	96.8	 	 Q0: 2 	  Q2: 1 	  Q3: 2 	  Q4: 2 	 
22	 	 	52.0	 	 Q4: 1 	 
23	 	 	17.2	 	 Q2: 1 	  Q0: 3 	  Q4: 0 	 
24	 	 	29.7	 	 Q2: 0 	  Q4: 0 	  Q1: 1 	  Q0: 3 	 
25	 	 	29.4	 	 Q1: 1 	  Q2: 1 	  Q3: 3 	 
26	 	 	89.0	 	 Q4: 1 	  Q3: 1 	  Q0: 1 	 
27	 	 	63.7	 	 Q0: 3 	  Q4: 2 	  Q3: 0 	  Q2: 0 	 
28	 	 	92.8	 	 Q1: 0 	  Q2: 1 	  Q0: 3 	  Q3: 0 	 
29	 	 	27.7	 	 Q1: 1 	  Q3: 1 	 
30	 	 	50.4	 	 Q4: 3 	  Q3: 2 	  Q2: 3 	  Q1: 0 	 
31	 	 	65.3	 	 Q4: 3 	  Q0: 0 	  Q1: 0 	  Q3: 3 	 
32	 	 	49.1	 	 Q3: 3 	  Q2: 2 	  Q4: 1 	 
33	 	 	79.9	 	 Q1: 0 	  Q4: 0 	 
34	 	 	61.8	 	 Q1: 1 	  Q4: 2 	  Q2: 2 	  Q0: 0 	 
35	 	 	83.5	 	 Q2: 0 	 
36	 	 	48.7	 	 Q3: 1 	  Q2: 3 	  Q4: 0 	  Q0: 3 	 
37	 	 	74.0	 	 Q4: 0 	  Q2: 2 	 
38	 	 	72.7	 	 Q3: 3 	  Q2: 3 	  Q1: 1 	 
39	 	 	20.7	 	 Q0: 2 	  Q3: 3 	  Q4: 2 	  Q1: 1 	 
40	 	 	29.5	 	 Q4: 1 	  Q2: 3 	  Q0: 3 	  Q1: 0 	 
========================================================== 
TaskID 	 Duration 	 Skill 	 Predecessor IDs 
1	13	Q1:	1
2	9	Q4:	0
3	34	Q0:	0
4	34	Q2:	1
5	24	Q2:	2	3
6	30	Q3:	3	2
7	31	Q4:	1	2	5
8	18	Q2:	1
9	32	Q3:	1	3
10	37	Q2:	1	9	7	5
11	12	Q0:	2	9
12	36	Q4:	2
13	12	Q4:	0	9
14	26	Q1:	2	13	4
15	31	Q3:	1	10	9
16	34	Q0:	0	14
17	29	Q1:	2	8	3	4	2
18	11	Q4:	0	2
19	38	Q1:	1	11	12	6
20	18	Q2:	0	6
21	38	Q0:	2	17
22	20	Q2:	2	1	14	2
23	32	Q2:	2	22
24	25	Q0:	0	14	1	20
25	11	Q4:	1	3	13
26	19	Q3:	1	20	9
27	12	Q4:	1
28	25	Q1:	1
29	15	Q1:	2	11	20	25
30	39	Q1:	0	8	24	25	10
31	18	Q1:	1	3	6
32	32	Q3:	2	12	1	26	13	24	4
33	17	Q3:	3	1	30	25	17
34	32	Q0:	1	23	9	30	7	17	29
35	33	Q0:	0	11	13	7	18
36	19	Q4:	1	1	4
37	31	Q1:	2	17	32
38	10	Q4:	2	18	3
39	26	Q4:	2	23	22
40	18	Q0:	2	36	13	7
41	27	Q3:	0	28	24	17
42	32	Q0:	2	7	32
43	37	Q4:	1
44	20	Q4:	2	43	36	29	30	35	4
45	9	Q0:	2	14	15	38	10	24	35	2
46	15	Q3:	3	12	29
47	9	Q2:	0	26	9	6	10	14
48	13	Q0:	0	45	1	44	25
49	31	Q2:	2	9	48	29	21	27	8
50	21	Q4:	2	38	21	40	10	41	3	17	26
51	40	Q1:	1	43	41	19	16	34
52	30	Q0:	3	33	22	34	43
53	18	Q0:	3	4	37	25	49	17
54	38	Q2:	2	31	40	5
55	39	Q2:	1	4	9	54	26	27
56	24	Q0:	3	12	47	55	22	37	7
57	33	Q4:	1	20	5	45	6	47	18
58	38	Q1:	2	29	54
59	38	Q2:	2	41	11	5	36	9	13	19	40	18	54
60	33	Q3:	0	30	36	24
61	15	Q4:	2	44	32	5	36	37	46	28
62	27	Q3:	3	57	22	8	35
63	37	Q4:	0	45	47	55	12
64	12	Q1:	0	36	44	37	48	22	62	12
65	23	Q2:	1	27	42	35	4
66	31	Q0:	3	65	23	37	2	9	29
67	35	Q0:	1	25	26	55	50
68	40	Q4:	2	58	37	40	4	65	11	35	29	16
69	39	Q2:	0	2	68	7	30	52	44	58
70	34	Q1:	2	29	68	49
71	40	Q3:	0	42	7	2
72	30	Q4:	1	24	3	19	61	23	42	50	39	49	64	48	58
73	25	Q0:	2	52	20	15	33	60	35	57	31
74	13	Q4:	3	8	58	56	62	28	42
75	39	Q0:	3	8	43	14	12	23	26	67	10	47	68
76	39	Q4:	0	57	35	6	1	10	32	4
77	23	Q3:	0	55	24	4	15	37	44	2	47
78	40	Q4:	3	21	63	6	37	75	31	8	73	38	29
79	17	Q4:	3	16	72	9	6	18	21	32	33	27
80	9	Q2:	0	2	40	5	22	69	8
81	37	Q0:	3	54	6	38	35	37	75
82	14	Q2:	3	50	55	39	34	59	28
83	16	Q3:	2	60	37	25	23	78	73
84	13	Q1:	1	58	60	37	79	43	66	15
85	32	Q4:	3	81	27	51	74
86	23	Q2:	3	56	34	54	49	4	60
87	40	Q1:	0	69	32	28	43	17	25	82	81	24	44	6	4
88	20	Q3:	1	18	66	67	8	48	75	22
89	31	Q3:	1	19	43	83	62	68	33	59	84	80	57
90	17	Q4:	2	43	29	13	40	26	66	36	88	25	81	34	82
91	17	Q3:	0	11	49	67
92	32	Q4:	3	46	7	2	4	81	10	66	56	67
93	31	Q1:	0	65	78	66	24	56	11	44	55	91	41	49	29	7	86	28	80
94	20	Q3:	1	9	22	47	89	66	85	53	4	49	56	80	91	7
95	26	Q2:	2	61	42	76	38	2	8	74	91	92	13	32
96	15	Q4:	1	83	67	75	80	79	46	95	18
97	28	Q3:	2	8	77	75	91	54	53	86	90
98	16	Q1:	0	83	86	24	8	4	68	50	21	63	51	9
99	17	Q0:	2	28	62	22	48	53	51	98
100	11	Q0:	0	14	88	96	95	86	28	40	66	64	1	63	47	53	59
========================================================== 